<number of tasks>
50

<cycle time>
1000

<order strength>
0.595


<task times>
1 80
2 78
3 65
4 52
5 186
6 72
7 136
8 268
9 27
10 65
11 126
12 76
13 125
14 30
15 160
16 103
17 225
18 150
19 263
20 64
21 86
22 83
23 101
24 95
25 72
26 151
27 198
28 48
29 32
30 290
31 140
32 49
33 84
34 45
35 76
36 171
37 144
38 95
39 33
40 97
41 45
42 79
43 142
44 183
45 175
46 178
47 26
48 83
49 177
50 91

<precedence relations>
1,5
2,6
3,6
4,6
5,7
6,8
6,9
7,10
8,11
8,12
8,13
8,14
9,12
9,13
9,14
10,16
11,15
12,16
12,17
13,16
13,17
14,16
14,17
15,18
16,19
16,20
17,19
17,20
18,21
19,22
19,23
19,24
19,25
20,22
20,23
20,24
20,25
21,27
22,26
22,29
22,30
22,31
22,32
22,37
23,28
23,29
23,30
23,31
23,32
24,29
24,30
24,37
25,30
25,31
26,33
27,37
28,34
29,35
29,36
29,38
31,38
31,48
33,44
34,39
35,41
36,42
37,43
38,40
38,44
38,45
39,48
40,46
41,48
42,48
43,47
44,50
45,49

<end>
